245 300 81 13 40 44 60 24 62 48 53 88 11 98 18 7 60 30 8 57 90 38 38 27 11 28 43 82 83 2 33 88 98 65 100 37 60 59 60 21 58 64 60 69 61 78 27 72 7 34 80 97 24 70 75 86 97 17 68 32 18 52 19 15 16 18 51 27 29 62 47 38 77 6 6 90 35 33 61 42 18 93 90 93 62 64 79 10 80 46 41 97 49 59 63 16 29 65 42 9 26 88 46 54 93 4 43 28 36 56 21 5 48 62 98 61 25 76 70 56 73 11 4 21 21 66 36 1 30 77 61 7 16 59 60 60 62 3 39 49 10 59 53 57 20 2 17 96 77 38 3 1 100 6 73 21 23 8 73 52 36 86 10 3 44 70 63 5 24 1 5 85 12 9 93 83 11 61 31 39 98 33 40 98 39 12 70 61 72 94 65 59 79 26 62 22 47 24 78 22 76 82 6 87 91 98 22 53 58 52 91 8 84 30 5 74 94 26 87 65 19 3 23 98 28 36 19 75 11 49 96 87 82 54 25 24 51 46 76 61 49 67 68 33 48 24 6 